32	0

0	1	2
10	1	3
9	1	4
6	1	5
1	1	6
6	1	7
2	2	8	9
10	2	10	11
4	2	10	11
1	1	12
4	1	12
8	1	13
3	1	14
2	2	15	16
2	2	17	18
10	2	17	18
8	1	19
4	1	19
4	1	20
1	2	21	22
9	2	23	24
1	2	23	24
1	1	25
9	1	25
9	2	26	27
10	1	28
5	1	28
5	1	29
8	1	30
8	1	31
10	1	32
0	0
